DIMACS2
80 32 281 88 90 21 107 106 316 66 170 12 112 262 290 158 22 154 118 41 132 17 14 287 123 163 204 45 155 54 207 180 86 296 311 216 1 31 136 52 178 82 274 179 305 166 302 141 228 111 289 24 237 48 263 172 59 70 257 279 314 108 227 150 49 221 268 8 245 94 304 223 161 267 192 129 89 206 64 177 226
p edge 320 1262
e 0 294 1.0
e 0 77 1.0
e 0 57 1.0
e 0 179 33.0
e 1 161 13.0
e 1 302 23.0
e 1 193 49.0
e 1 177 49.0
e 2 71 2.0
e 2 253 2.0
e 2 250 2.0
e 2 48 3.0
e 3 111 19.0
e 3 266 1.0
e 3 252 1.0
e 3 169 1.0
e 4 35 2.0
e 4 302 34.0
e 4 226 28.0
e 4 106 48.0
e 5 78 1.0
e 5 175 2.0
e 5 265 1.0
e 5 186 2.0
e 6 106 29.0
e 6 238 1.0
e 6 305 14.0
e 6 158 33.0
e 7 109 2.0
e 7 55 2.0
e 7 165 2.0
e 7 13 1.0
e 8 65 21.0
e 8 104 13.0
e 8 61 33.0
e 8 121 44.0
e 9 61 1.0
e 9 240 2.0
e 9 124 1.0
e 10 190 1.0
e 10 258 1.0
e 10 253 2.0
e 10 136 20.0
e 11 45 10.0
e 11 236 3.0
e 11 136 42.0
e 11 43 1.0
e 12 17 1.0
e 12 39 28.0
e 12 256 39.0
e 12 315 17.0
e 13 270 1.0
e 13 196 1.0
e 13 209 1.0
e 13 32 5.0
e 14 268 35.0
e 14 106 19.0
e 14 68 4.0
e 14 5 37.0
e 15 251 1.0
e 15 142 1.0
e 15 145 1.0
e 15 184 1.0
e 16 69 1.0
e 16 109 1.0
e 16 102 1.0
e 16 200 1.0
e 17 9 3.0
e 17 69 40.0
e 17 274 19.0
e 17 255 18.0
e 18 298 3.0
e 18 93 1.0
e 18 120 1.0
e 18 149 1.0
e 19 152 1.0
e 19 224 1.0
e 19 172 12.0
e 19 159 2.0
e 20 165 3.0
e 20 244 1.0
e 20 184 2.0
e 20 193 1.0
e 21 57 38.0
e 21 93 12.0
e 21 124 20.0
e 21 53 22.0
e 22 98 4.0
e 22 41 42.0
e 22 55 8.0
e 22 139 10.0
e 23 88 31.0
e 23 278 1.0
e 23 245 43.0
e 23 145 1.0
e 24 152 23.0
e 24 179 18.0
e 24 303 22.0
e 24 221 11.0
e 25 139 1.0
e 25 234 1.0
e 25 55 1.0
e 25 267 1.0
e 26 240 1.0
e 26 48 6.0
e 26 143 2.0
e 26 7 2.0
e 27 189 1.0
e 27 174 1.0
e 27 290 20.0
e 27 68 1.0
e 28 272 1.0
e 28 250 1.0
e 28 279 31.0
e 28 172 38.0
e 29 0 2.0
e 29 105 2.0
e 29 258 2.0
e 29 195 2.0
e 30 154 29.0
e 30 193 1.0
e 30 39 1.0
e 30 104 1.0
e 31 16 41.0
e 31 255 16.0
e 31 188 43.0
e 31 317 32.0
e 32 14 47.0
e 32 109 45.0
e 32 234 24.0
e 32 212 5.0
e 33 233 2.0
e 33 277 3.0
e 33 109 1.0
e 33 94 12.0
e 34 275 1.0
e 34 51 1.0
e 34 191 1.0
e 34 293 1.0
e 35 15 1.0
e 35 203 2.0
e 35 80 1.0
e 35 198 1.0
e 36 49 23.0
e 36 74 1.0
e 36 104 1.0
e 36 75 1.0
e 37 50 1.0
e 37 265 3.0
e 37 258 1.0
e 37 297 1.0
e 38 160 1.0
e 38 21 16.0
e 38 47 1.0
e 38 123 7.0
e 39 260 1.0
e 39 221 30.0
e 39 176 1.0
e 39 17 36.0
e 40 257 22.0
e 40 20 1.0
e 40 314 17.0
e 40 154 5.0
e 41 80 37.0
e 41 316 20.0
e 41 192 43.0
e 41 143 34.0
e 42 166 44.0
e 42 222 1.0
e 42 305 25.0
e 42 95 1.0
e 43 274 7.0
e 43 188 1.0
e 43 267 16.0
e 43 144 1.0
e 44 21 4.0
e 44 198 1.0
e 44 202 1.0
e 44 133 1.0
e 45 213 30.0
e 45 288 29.0
e 45 318 42.0
e 45 305 24.0
e 46 221 49.0
e 46 266 1.0
e 46 90 12.0
e 46 99 1.0
e 47 28 1.0
e 47 256 1.0
e 47 309 1.0
e 47 34 1.0
e 48 20 23.0
e 48 93 44.0
e 48 60 4.0
e 48 153 1.0
e 49 241 37.0
e 49 275 29.0
e 49 30 5.0
e 49 64 28.0
e 50 304 15.0
e 50 26 1.0
e 50 256 1.0
e 50 163 30.0
e 51 156 2.0
e 51 240 1.0
e 51 153 3.0
e 51 140 2.0
e 52 180 26.0
e 52 206 14.0
e 52 51 25.0
e 52 230 14.0
e 53 18 1.0
e 53 174 1.0
e 53 32 18.0
e 53 136 36.0
e 54 126 26.0
e 54 130 11.0
e 54 208 40.0
e 54 218 24.0
e 55 42 1.0
e 55 276 2.0
e 55 242 1.0
e 55 258 1.0
e 56 214 1.0
e 56 185 2.0
e 56 26 2.0
e 56 279 40.0
e 57 305 36.0
e 57 62 1.0
e 57 167 1.0
e 57 284 1.0
e 58 127 1.0
e 58 168 1.0
e 58 23 1.0
e 58 29 1.0
e 59 120 25.0
e 59 13 30.0
e 59 189 2.0
e 59 90 25.0
e 60 239 1.0
e 60 58 1.0
e 60 23 1.0
e 60 168 1.0
e 61 26 2.0
e 61 255 1.0
e 61 306 1.0
e 61 122 2.0
e 62 134 2.0
e 62 97 1.0
e 62 17 22.0
e 62 99 1.0
e 63 112 35.0
e 63 221 45.0
e 63 111 36.0
e 63 87 2.0
e 64 207 42.0
e 64 264 9.0
e 64 20 32.0
e 64 48 33.0
e 65 73 1.0
e 65 161 24.0
e 65 133 1.0
e 65 124 1.0
e 66 47 24.0
e 66 150 38.0
e 66 53 38.0
e 66 146 38.0
e 67 179 47.0
e 67 180 15.0
e 67 284 1.0
e 67 82 44.0
e 68 55 1.0
e 68 98 1.0
e 68 117 1.0
e 68 53 1.0
e 69 281 38.0
e 69 80 1.0
e 69 280 1.0
e 69 183 1.0
e 70 307 41.0
e 70 46 47.0
e 70 127 48.0
e 70 221 43.0
e 71 103 1.0
e 71 53 1.0
e 71 44 1.0
e 71 7 1.0
e 72 57 1.0
e 72 3 1.0
e 72 283 1.0
e 72 294 1.0
e 73 110 1.0
e 73 290 37.0
e 73 55 1.0
e 73 22 47.0
e 74 150 16.0
e 74 246 1.0
e 74 305 8.0
e 74 43 1.0
e 75 201 2.0
e 75 191 1.0
e 75 304 36.0
e 75 152 1.0
e 76 35 1.0
e 76 94 26.0
e 76 170 40.0
e 76 87 1.0
e 77 64 12.0
e 77 313 1.0
e 77 199 1.0
e 77 32 18.0
e 78 13 1.0
e 78 84 1.0
e 78 64 31.0
e 78 160 1.0
e 79 187 1.0
e 79 147 1.0
e 79 155 19.0
e 79 296 11.0
e 80 68 1.0
e 80 120 1.0
e 80 59 47.0
e 81 230 1.0
e 81 40 1.0
e 81 222 1.0
e 81 310 1.0
e 82 119 24.0
e 82 18 27.0
e 82 77 5.0
e 82 174 1.0
e 83 162 2.0
e 83 144 1.0
e 83 69 1.0
e 83 116 1.0
e 84 129 1.0
e 84 209 1.0
e 84 15 1.0
e 84 31 19.0
e 85 269 1.0
e 85 38 1.0
e 85 124 2.0
e 85 239 1.0
e 86 95 37.0
e 86 111 34.0
e 86 68 43.0
e 86 206 23.0
e 87 103 1.0
e 87 164 1.0
e 87 167 1.0
e 87 155 48.0
e 88 42 10.0
e 88 207 27.0
e 88 277 45.0
e 88 144 3.0
e 89 211 10.0
e 89 231 12.0
e 89 202 24.0
e 89 254 38.0
e 90 248 20.0
e 90 49 1.0
e 90 272 9.0
e 90 155 48.0
e 91 86 18.0
e 91 99 1.0
e 91 197 1.0
e 91 57 1.0
e 92 262 31.0
e 92 211 1.0
e 92 166 4.0
e 92 271 1.0
e 93 126 2.0
e 93 60 1.0
e 93 107 24.0
e 93 244 1.0
e 94 202 34.0
e 94 260 4.0
e 94 306 3.0
e 94 263 3.0
e 95 301 1.0
e 95 120 1.0
e 95 164 1.0
e 95 216 6.0
e 96 222 1.0
e 96 202 1.0
e 96 293 1.0
e 96 144 1.0
e 97 155 48.0
e 97 118 47.0
e 97 162 1.0
e 97 77 1.0
e 98 255 1.0
e 98 166 19.0
e 98 278 1.0
e 98 78 1.0
e 99 163 23.0
e 99 79 1.0
e 99 310 1.0
e 99 98 1.0
e 100 110 1.0
e 100 94 22.0
e 100 277 1.0
e 100 81 1.0
e 101 15 1.0
e 101 124 1.0
e 101 176 1.0
e 101 184 2.0
e 102 227 8.0
e 102 317 1.0
e 102 100 1.0
e 102 255 3.0
e 103 254 1.0
e 103 221 41.0
e 103 303 1.0
e 103 58 1.0
e 104 12 13.0
e 104 192 23.0
e 104 111 11.0
e 104 211 1.0
e 105 130 1.0
e 105 301 1.0
e 105 253 1.0
e 105 179 38.0
e 106 173 24.0
e 106 213 49.0
e 106 187 37.0
e 106 124 4.0
e 107 1 35.0
e 107 293 43.0
e 107 119 30.0
e 107 290 15.0
e 108 7 31.0
e 108 28 41.0
e 108 269 47.0
e 108 165 10.0
e 109 149 1.0
e 109 221 23.0
e 109 189 1.0
e 109 199 1.0
e 110 209 2.0
e 110 114 1.0
e 110 3 1.0
e 110 137 1.0
e 111 145 12.0
e 111 219 19.0
e 111 266 33.0
e 111 175 29.0
e 112 86 36.0
e 112 154 32.0
e 112 143 32.0
e 112 45 27.0
e 113 188 1.0
e 113 229 2.0
e 113 279 45.0
e 113 252 1.0
e 114 291 1.0
e 114 195 2.0
e 114 37 1.0
e 114 298 1.0
e 115 280 1.0
e 115 219 1.0
e 115 315 1.0
e 115 217 2.0
e 116 232 1.0
e 116 2 1.0
e 116 187 1.0
e 116 40 1.0
e 117 115 1.0
e 117 176 1.0
e 117 243 2.0
e 117 145 1.0
e 118 200 15.0
e 118 182 36.0
e 118 52 42.0
e 118 242 11.0
e 119 27 1.0
e 119 91 1.0
e 119 209 1.0
e 119 224 1.0
e 120 129 41.0
e 120 65 1.0
e 120 295 1.0
e 120 41 15.0
e 121 87 1.0
e 121 204 38.0
e 121 58 1.0
e 121 97 1.0
e 122 218 1.0
e 122 50 1.0
e 122 150 30.0
e 122 265 1.0
e 123 157 25.0
e 123 278 11.0
e 123 198 42.0
e 123 156 40.0
e 124 171 1.0
e 124 271 1.0
e 124 125 1.0
e 124 31 22.0
e 125 221 33.0
e 125 314 8.0
e 125 300 1.0
e 125 279 18.0
e 126 79 2.0
e 126 20 2.0
e 126 198 2.0
e 126 243 2.0
e 127 250 2.0
e 127 293 1.0
e 127 26 2.0
e 127 2 1.0
e 128 37 1.0
e 128 91 1.0
e 128 93 1.0
e 128 47 1.0
e 129 33 44.0
e 129 290 25.0
e 129 205 15.0
e 129 202 35.0
e 130 1 20.0
e 130 38 1.0
e 130 307 1.0
e 130 52 2.0
e 131 146 1.0
e 131 269 1.0
e 131 92 1.0
e 131 236 3.0
e 132 180 3.0
e 132 297 40.0
e 132 60 47.0
e 132 137 20.0
e 133 75 1.0
e 133 32 15.0
e 133 240 1.0
e 133 248 1.0
e 134 66 5.0
e 134 316 21.0
e 134 272 1.0
e 134 59 16.0
e 135 85 2.0
e 135 29 2.0
e 135 252 1.0
e 135 120 1.0
e 136 318 44.0
e 136 256 48.0
e 137 61 2.0
e 137 233 2.0
e 137 302 29.0
e 137 201 1.0
e 138 295 1.0
e 138 188 1.0
e 138 259 1.0
e 138 79 1.0
e 139 115 1.0
e 139 210 2.0
e 139 138 2.0
e 139 16 1.0
e 140 192 33.0
e 140 33 1.0
e 140 270 1.0
e 140 296 13.0
e 141 229 4.0
e 141 200 30.0
e 141 176 1.0
e 141 123 16.0
e 142 99 1.0
e 142 136 27.0
e 142 7 2.0
e 142 91 2.0
e 143 210 1.0
e 143 8 25.0
e 143 268 2.0
e 143 137 1.0
e 144 244 1.0
e 144 48 47.0
e 144 171 1.0
e 144 248 1.0
e 145 93 2.0
e 145 98 1.0
e 145 312 1.0
e 145 243 2.0
e 146 200 1.0
e 146 283 1.0
e 146 193 1.0
e 146 269 1.0
e 147 272 1.0
e 147 70 19.0
e 147 252 1.0
e 147 52 9.0
e 148 233 2.0
e 148 20 2.0
e 148 16 2.0
e 148 304 14.0
e 149 165 1.0
e 149 75 2.0
e 149 228 22.0
e 149 213 2.0
e 150 182 19.0
e 150 266 17.0
e 150 95 14.0
e 150 183 1.0
e 151 205 1.0
e 151 166 8.0
e 151 198 1.0
e 151 294 1.0
e 152 278 1.0
e 152 0 1.0
e 152 215 1.0
e 152 178 33.0
e 153 289 22.0
e 153 21 32.0
e 153 1 44.0
e 153 182 1.0
e 154 215 7.0
e 154 70 3.0
e 154 37 22.0
e 154 219 29.0
e 155 202 43.0
e 155 197 9.0
e 155 171 48.0
e 155 199 12.0
e 156 85 2.0
e 156 134 1.0
e 156 36 2.0
e 156 294 1.0
e 157 134 1.0
e 157 263 1.0
e 157 66 40.0
e 157 316 48.0
e 158 171 23.0
e 158 228 14.0
e 158 28 13.0
e 158 124 12.0
e 159 303 1.0
e 159 300 1.0
e 159 229 1.0
e 159 184 2.0
e 160 104 1.0
e 160 277 1.0
e 160 40 1.0
e 160 136 4.0
e 161 121 37.0
e 161 134 11.0
e 161 307 40.0
e 161 130 11.0
e 162 205 1.0
e 162 104 1.0
e 162 36 2.0
e 162 312 2.0
e 163 105 8.0
e 163 167 13.0
e 163 150 18.0
e 163 130 13.0
e 164 295 1.0
e 164 276 1.0
e 164 119 1.0
e 164 140 1.0
e 165 288 2.0
e 165 40 2.0
e 165 169 1.0
e 165 214 3.0
e 166 85 41.0
e 166 34 49.0
e 166 199 8.0
e 166 175 33.0
e 167 147 1.0
e 167 314 38.0
e 167 251 1.0
e 167 269 1.0
e 168 138 1.0
e 168 296 36.0
e 168 144 1.0
e 168 158 31.0
e 169 39 1.0
e 169 287 5.0
e 169 62 2.0
e 169 117 1.0
e 170 309 39.0
e 170 244 26.0
e 170 200 12.0
e 170 194 29.0
e 171 283 1.0
e 171 255 1.0
e 171 275 1.0
e 171 11 1.0
e 172 49 1.0
e 172 21 34.0
e 172 107 44.0
e 172 251 9.0
e 173 51 2.0
e 173 231 1.0
e 173 208 1.0
e 173 17 4.0
e 174 132 4.0
e 174 73 1.0
e 174 201 1.0
e 174 242 2.0
e 175 83 2.0
e 175 13 1.0
e 175 112 47.0
e 175 96 1.0
e 176 40 1.0
e 176 133 1.0
e 176 304 1.0
e 176 164 1.0
e 177 283 12.0
e 177 300 9.0
e 177 144 31.0
e 177 59 33.0
e 178 140 43.0
e 178 143 42.0
e 178 63 2.0
e 178 200 39.0
e 179 129 40.0
e 179 37 2.0
e 179 153 33.0
e 179 285 11.0
e 180 171 33.0
e 180 226 17.0
e 180 188 41.0
e 180 23 4.0
e 181 218 1.0
e 181 52 4.0
e 181 13 1.0
e 181 196 1.0
e 182 293 1.0
e 182 145 1.0
e 182 100 1.0
e 182 315 1.0
e 183 92 1.0
e 183 190 1.0
e 183 14 26.0
e 183 239 1.0
e 184 0 2.0
e 184 53 1.0
e 184 44 1.0
e 184 214 1.0
e 185 155 32.0
e 185 172 24.0
e 185 151 1.0
e 185 26 1.0
e 186 42 1.0
e 186 264 1.0
e 186 7 1.0
e 186 176 1.0
e 187 195 1.0
e 187 247 1.0
e 187 155 27.0
e 187 80 1.0
e 188 57 1.0
e 188 236 1.0
e 188 185 1.0
e 188 18 1.0
e 189 308 1.0
e 189 82 25.0
e 189 302 44.0
e 189 130 1.0
e 190 289 20.0
e 190 39 1.0
e 190 228 28.0
e 190 218 1.0
e 191 97 1.0
e 191 295 1.0
e 191 63 1.0
e 191 194 1.0
e 192 224 1.0
e 192 309 19.0
e 192 197 22.0
e 192 260 2.0
e 193 97 1.0
e 193 72 1.0
e 193 100 1.0
e 193 241 1.0
e 194 87 2.0
e 194 136 37.0
e 194 89 8.0
e 194 154 38.0
e 195 93 2.0
e 195 243 2.0
e 195 113 1.0
e 195 92 1.0
e 196 23 2.0
e 196 97 1.0
e 196 309 1.0
e 196 216 35.0
e 197 245 47.0
e 197 199 1.0
e 197 274 47.0
e 197 70 37.0
e 198 33 1.0
e 198 143 1.0
e 198 129 45.0
e 198 213 1.0
e 199 37 1.0
e 199 130 1.0
e 199 32 40.0
e 199 297 1.0
e 200 95 1.0
e 200 136 29.0
e 201 62 1.0
e 201 242 2.0
e 201 73 1.0
e 201 157 2.0
e 202 172 39.0
e 202 184 2.0
e 202 223 21.0
e 202 210 1.0
e 203 263 9.0
e 203 108 32.0
e 203 300 1.0
e 203 26 2.0
e 204 307 21.0
e 204 229 43.0
e 204 202 19.0
e 204 54 48.0
e 205 206 27.0
e 205 148 2.0
e 205 114 1.0
e 205 191 1.0
e 206 233 26.0
e 206 146 13.0
e 206 211 9.0
e 206 1 30.0
e 207 47 7.0
e 207 208 34.0
e 207 183 23.0
e 207 314 48.0
e 208 8 49.0
e 208 287 30.0
e 208 183 1.0
e 208 199 1.0
e 209 45 28.0
e 209 212 1.0
e 209 29 2.0
e 209 186 1.0
e 210 317 1.0
e 210 276 1.0
e 210 247 1.0
e 210 168 1.0
e 211 35 1.0
e 211 247 1.0
e 211 165 1.0
e 212 309 1.0
e 212 89 24.0
e 212 182 1.0
e 212 224 1.0
e 213 188 1.0
e 213 259 2.0
e 213 36 2.0
e 213 51 1.0
e 214 241 1.0
e 214 168 1.0
e 214 102 2.0
e 214 300 1.0
e 215 278 2.0
e 215 58 2.0
e 215 75 2.0
e 215 285 2.0
e 216 133 24.0
e 216 183 31.0
e 216 274 34.0
e 216 147 28.0
e 217 232 1.0
e 217 60 1.0
e 217 46 1.0
e 217 315 1.0
e 218 85 1.0
e 218 260 1.0
e 218 196 1.0
e 218 34 1.0
e 219 151 2.0
e 219 227 49.0
e 219 308 1.0
e 219 33 1.0
e 220 101 1.0
e 220 145 3.0
e 220 144 1.0
e 220 187 1.0
e 221 274 3.0
e 221 77 38.0
e 221 135 17.0
e 222 67 1.0
e 222 147 1.0
e 222 226 46.0
e 222 304 35.0
e 223 16 26.0
e 223 101 44.0
e 223 175 38.0
e 224 204 26.0
e 224 85 1.0
e 224 107 24.0
e 225 281 33.0
e 225 314 37.0
e 225 302 4.0
e 225 77 1.0
e 226 252 4.0
e 226 127 4.0
e 226 64 9.0
e 226 8 20.0
e 227 27 39.0
e 227 304 43.0
e 227 217 42.0
e 227 141 38.0
e 228 204 41.0
e 228 71 6.0
e 228 169 28.0
e 229 243 1.0
e 229 187 1.0
e 229 5 1.0
e 229 153 1.0
e 230 6 2.0
e 230 202 1.0
e 230 251 1.0
e 230 20 1.0
e 231 69 1.0
e 231 68 1.0
e 231 226 13.0
e 231 178 49.0
e 232 51 2.0
e 232 159 1.0
e 232 133 1.0
e 232 50 1.0
e 233 16 1.0
e 233 235 1.0
e 233 209 1.0
e 233 301 3.0
e 234 268 28.0
e 234 87 1.0
e 234 287 47.0
e 234 91 1.0
e 235 27 1.0
e 235 277 2.0
e 235 129 8.0
e 235 314 7.0
e 236 20 1.0
e 236 148 2.0
e 236 155 17.0
e 236 69 1.0
e 237 24 2.0
e 237 257 4.0
e 237 101 4.0
e 237 30 28.0
e 237 311 28.0
e 238 314 4.0
e 238 313 1.0
e 238 232 1.0
e 238 21 42.0
e 239 221 26.0
e 239 229 2.0
e 239 15 1.0
e 239 126 2.0
e 240 194 1.0
e 240 115 1.0
e 240 174 1.0
e 240 5 1.0
e 241 20 1.0
e 241 239 1.0
e 241 0 1.0
e 241 309 2.0
e 242 202 2.0
e 242 20 1.0
e 242 144 2.0
e 242 247 2.0
e 243 303 2.0
e 243 131 2.0
e 243 104 1.0
e 244 111 27.0
e 244 71 1.0
e 244 195 2.0
e 244 181 1.0
e 245 22 18.0
e 245 269 14.0
e 245 310 40.0
e 245 287 8.0
e 246 125 1.0
e 246 224 1.0
e 246 201 2.0
e 247 79 1.0
e 247 256 1.0
e 247 173 1.0
e 247 299 1.0
e 248 145 2.0
e 248 110 1.0
e 248 262 40.0
e 248 100 1.0
e 249 54 48.0
e 249 301 1.0
e 249 50 1.0
e 249 258 1.0
e 250 64 38.0
e 250 215 2.0
e 250 87 2.0
e 250 240 1.0
e 251 279 46.0
e 251 23 1.0
e 251 72 1.0
e 251 217 2.0
e 252 137 1.0
e 252 257 39.0
e 252 25 1.0
e 252 281 16.0
e 253 87 1.0
e 253 211 1.0
e 253 312 1.0
e 253 317 1.0
e 254 86 36.0
e 254 236 1.0
e 254 34 1.0
e 254 286 2.0
e 255 63 1.0
e 255 38 1.0
e 255 140 1.0
e 255 132 20.0
e 256 213 1.0
e 256 74 1.0
e 256 218 1.0
e 256 59 25.0
e 257 281 27.0
e 257 216 20.0
e 257 91 47.0
e 257 209 20.0
e 258 239 1.0
e 258 206 14.0
e 258 124 1.0
e 258 293 1.0
e 259 42 2.0
e 259 300 1.0
e 259 14 47.0
e 259 65 1.0
e 260 275 1.0
e 260 240 1.0
e 260 9 1.0
e 260 48 37.0
e 261 170 24.0
e 261 122 1.0
e 261 2 1.0
e 261 22 12.0
e 262 68 19.0
e 262 98 6.0
e 262 21 25.0
e 262 156 48.0
e 263 14 13.0
e 263 53 11.0
e 263 155 42.0
e 263 223 21.0
e 264 185 1.0
e 264 95 1.0
e 264 98 1.0
e 264 221 37.0
e 265 241 2.0
e 265 149 1.0
e 265 285 1.0
e 265 267 6.0
e 266 41 7.0
e 266 48 28.0
e 266 23 1.0
e 266 127 1.0
e 267 160 4.0
e 267 116 42.0
e 267 275 4.0
e 267 132 5.0
e 268 275 20.0
e 268 288 48.0
e 268 248 7.0
e 268 300 35.0
e 269 251 1.0
e 269 288 1.0
e 269 153 1.0
e 270 271 1.0
e 270 50 1.0
e 270 152 1.0
e 270 307 1.0
e 271 61 1.0
e 271 17 43.0
e 271 161 27.0
e 271 110 2.0
e 272 96 1.0
e 272 153 1.0
e 272 274 18.0
e 272 298 1.0
e 273 269 1.0
e 273 8 12.0
e 273 155 20.0
e 273 11 1.0
e 274 173 23.0
e 274 223 22.0
e 274 159 1.0
e 274 64 28.0
e 275 159 2.0
e 275 305 42.0
e 275 172 26.0
e 275 32 15.0
e 276 206 18.0
e 276 31 23.0
e 276 3 1.0
e 276 314 16.0
e 277 181 1.0
e 277 300 2.0
e 277 0 2.0
e 277 264 1.0
e 278 228 15.0
e 278 165 1.0
e 278 264 1.0
e 278 114 1.0
e 279 103 13.0
e 279 276 42.0
e 279 11 43.0
e 279 257 43.0
e 280 71 2.0
e 280 145 1.0
e 280 130 1.0
e 280 89 37.0
e 281 201 43.0
e 281 224 22.0
e 281 243 16.0
e 281 50 13.0
e 282 291 1.0
e 282 49 33.0
e 282 111 1.0
e 282 312 2.0
e 283 245 38.0
e 283 155 43.0
e 283 212 1.0
e 283 31 26.0
e 284 10 2.0
e 284 23 1.0
e 284 115 1.0
e 284 79 1.0
e 285 216 20.0
e 285 110 2.0
e 285 224 1.0
e 285 17 17.0
e 286 243 1.0
e 286 101 1.0
e 286 25 1.0
e 286 94 2.0
e 287 35 18.0
e 287 67 13.0
e 287 267 9.0
e 287 291 9.0
e 288 218 1.0
e 288 23 1.0
e 288 202 1.0
e 288 316 4.0
e 289 218 31.0
e 289 75 42.0
e 289 3 49.0
e 289 187 9.0
e 290 34 8.0
e 290 305 8.0
e 290 153 39.0
e 290 80 10.0
e 291 151 1.0
e 291 59 3.0
e 291 170 41.0
e 291 312 1.0
e 292 156 1.0
e 292 181 1.0
e 292 95 1.0
e 292 278 1.0
e 293 250 3.0
e 293 302 35.0
e 293 221 6.0
e 294 188 2.0
e 294 259 1.0
e 294 223 15.0
e 294 46 1.0
e 295 67 1.0
e 295 224 1.0
e 295 230 1.0
e 295 156 1.0
e 296 122 26.0
e 296 317 49.0
e 296 195 17.0
e 296 111 48.0
e 297 48 4.0
e 297 72 1.0
e 297 50 1.0
e 297 117 1.0
e 298 165 1.0
e 298 192 49.0
e 298 303 1.0
e 298 205 2.0
e 299 258 1.0
e 299 285 1.0
e 299 252 1.0
e 299 126 1.0
e 300 62 1.0
e 300 89 1.0
e 300 208 1.0
e 300 200 1.0
e 301 251 1.0
e 301 25 1.0
e 301 207 45.0
e 301 180 17.0
e 302 307 4.0
e 302 249 22.0
e 302 291 36.0
e 302 238 23.0
e 303 300 1.0
e 303 98 1.0
e 303 78 1.0
e 303 86 34.0
e 304 220 43.0
e 304 110 33.0
e 304 156 27.0
e 305 99 4.0
e 305 285 18.0
e 305 262 23.0
e 306 135 2.0
e 306 105 1.0
e 306 268 20.0
e 306 73 1.0
e 307 165 1.0
e 307 313 1.0
e 307 256 1.0
e 307 112 24.0
e 308 65 1.0
e 308 17 26.0
e 308 166 1.0
e 308 79 1.0
e 309 261 1.0
e 309 227 24.0
e 309 292 1.0
e 309 16 1.0
e 310 21 30.0
e 310 151 1.0
e 310 210 1.0
e 310 77 1.0
e 311 193 22.0
e 311 184 40.0
e 311 29 32.0
e 312 207 47.0
e 312 214 2.0
e 312 7 1.0
e 312 30 1.0
e 313 97 1.0
e 313 80 1.0
e 313 189 1.0
e 313 236 1.0
e 314 253 43.0
e 314 258 47.0
e 314 305 5.0
e 314 187 5.0
e 315 82 22.0
e 315 146 1.0
e 315 8 33.0
e 315 259 2.0
e 316 192 15.0
e 316 177 11.0
e 316 253 41.0
e 316 83 30.0
e 317 214 1.0
e 317 262 23.0
e 317 141 26.0
e 318 114 1.0
e 318 252 1.0
e 318 37 1.0
e 318 131 1.0
e 319 55 2.0
e 319 242 2.0
e 319 201 2.0
e 319 149 2.0
